
;this file is automatically generated: Tue Feb 23 13:38:05 CST 2021

;declarations generated

(declare-fun oclExcludes ( Int Int) Bool)
(declare-fun type_2d3c97cf_325a_49ef_a888_eb319153573c_Class4 ( Int) Bool)
(declare-fun type_2d3c97cf_325a_49ef_a888_eb319153573c_Class5 ( Int) Bool)
(declare-fun type_2d3c97cf_325a_49ef_a888_eb319153573c_Class6 ( Int) Bool)
(declare-fun type_2d3c97cf_325a_49ef_a888_eb319153573c_Class7 ( Int) Bool)
(declare-fun type_2d3c97cf_325a_49ef_a888_eb319153573c_Class0 ( Int) Bool)
(declare-fun type_2d3c97cf_325a_49ef_a888_eb319153573c_Class1 ( Int) Bool)
(declare-fun type_2d3c97cf_325a_49ef_a888_eb319153573c_Class2 ( Int) Bool)
(declare-fun type_2d3c97cf_325a_49ef_a888_eb319153573c_Class3 ( Int) Bool)
(declare-fun type_2d3c97cf_325a_49ef_a888_eb319153573c_Class8 ( Int) Bool)
(declare-fun type_2d3c97cf_325a_49ef_a888_eb319153573c_Class9 ( Int) Bool)
(declare-fun class43_Class43IntAttr1 ( Int) Int)
(declare-fun Cardinality ( Int) Int)
(declare-fun obj_f556cd14_fd8b_4ee1_8347_90493177944a ( Int) Int)
(declare-fun type_2d3c97cf_325a_49ef_a888_eb319153573c_Class21 ( Int) Bool)
(declare-fun type_2d3c97cf_325a_49ef_a888_eb319153573c_Class20 ( Int) Bool)
(declare-fun type_2d3c97cf_325a_49ef_a888_eb319153573c_Class23 ( Int) Bool)
(declare-fun type_2d3c97cf_325a_49ef_a888_eb319153573c_Class22 ( Int) Bool)
(declare-fun type_2d3c97cf_325a_49ef_a888_eb319153573c_Class25 ( Int) Bool)
(declare-fun type_2d3c97cf_325a_49ef_a888_eb319153573c_Class24 ( Int) Bool)
(declare-fun type_2d3c97cf_325a_49ef_a888_eb319153573c_Class27 ( Int) Bool)
(declare-fun type_2d3c97cf_325a_49ef_a888_eb319153573c_Class26 ( Int) Bool)
(declare-fun type_2d3c97cf_325a_49ef_a888_eb319153573c_Class29 ( Int) Bool)
(declare-fun type_2d3c97cf_325a_49ef_a888_eb319153573c_Class28 ( Int) Bool)
(declare-fun type_2d3c97cf_325a_49ef_a888_eb319153573c_Class19 ( Int) Bool)
(declare-fun type_2d3c97cf_325a_49ef_a888_eb319153573c_Class10 ( Int) Bool)
(declare-fun type_2d3c97cf_325a_49ef_a888_eb319153573c_Class12 ( Int) Bool)
(declare-fun type_2d3c97cf_325a_49ef_a888_eb319153573c_Class11 ( Int) Bool)
(declare-fun type_2d3c97cf_325a_49ef_a888_eb319153573c_Class14 ( Int) Bool)
(declare-fun type_2d3c97cf_325a_49ef_a888_eb319153573c_Class13 ( Int) Bool)
(declare-fun type_2d3c97cf_325a_49ef_a888_eb319153573c_Class16 ( Int) Bool)
(declare-fun type_2d3c97cf_325a_49ef_a888_eb319153573c_Class15 ( Int) Bool)
(declare-fun type_2d3c97cf_325a_49ef_a888_eb319153573c_Class18 ( Int) Bool)
(declare-fun type_2d3c97cf_325a_49ef_a888_eb319153573c_Class17 ( Int) Bool)
(declare-fun oclSelect ( Int Bool) Int)
(declare-fun type_2d3c97cf_325a_49ef_a888_eb319153573c_Class41 ( Int) Bool)
(declare-fun type_2d3c97cf_325a_49ef_a888_eb319153573c_Class40 ( Int) Bool)
(declare-fun type_2d3c97cf_325a_49ef_a888_eb319153573c_Class43 ( Int) Bool)
(declare-fun type_2d3c97cf_325a_49ef_a888_eb319153573c_Class42 ( Int) Bool)
(declare-fun type_2d3c97cf_325a_49ef_a888_eb319153573c_Class45 ( Int) Bool)
(declare-fun type_2d3c97cf_325a_49ef_a888_eb319153573c_Class44 ( Int) Bool)
(declare-fun type_2d3c97cf_325a_49ef_a888_eb319153573c_Class30 ( Int) Bool)
(declare-fun type_2d3c97cf_325a_49ef_a888_eb319153573c_Class32 ( Int) Bool)
(declare-fun type_2d3c97cf_325a_49ef_a888_eb319153573c_Class31 ( Int) Bool)
(declare-fun type_2d3c97cf_325a_49ef_a888_eb319153573c_Class34 ( Int) Bool)
(declare-fun type_2d3c97cf_325a_49ef_a888_eb319153573c_Class33 ( Int) Bool)
(declare-fun type_2d3c97cf_325a_49ef_a888_eb319153573c_Class36 ( Int) Bool)
(declare-fun type_2d3c97cf_325a_49ef_a888_eb319153573c_Class35 ( Int) Bool)
(declare-fun type_2d3c97cf_325a_49ef_a888_eb319153573c_Class38 ( Int) Bool)
(declare-fun type_2d3c97cf_325a_49ef_a888_eb319153573c_Class37 ( Int) Bool)
(declare-fun type_2d3c97cf_325a_49ef_a888_eb319153573c_Class39 ( Int) Bool)
(declare-fun Enum0 ( Int) Int)
(declare-fun Enum1 ( Int) Int)
(declare-fun Enum2 ( Int) Int)
(declare-fun container_ ( Int) Int)
(declare-fun oclIncludes ( Int Int) Bool)
(declare-fun ObjAt ( Int Int) Int)

;formula(s) generated
(assert (! (forall ((v Int)) (=> ( type_2d3c97cf_325a_49ef_a888_eb319153573c_Class43 v )  (< ( class43_Class43IntAttr1 ( obj_f556cd14_fd8b_4ee1_8347_90493177944a v )  )  7))):named l0))
(assert (! (exists ((o Int)) (and (and (and ( type_2d3c97cf_325a_49ef_a888_eb319153573c_Class0 ( obj_f556cd14_fd8b_4ee1_8347_90493177944a o )  )  ( type_2d3c97cf_325a_49ef_a888_eb319153573c_Class22 ( obj_f556cd14_fd8b_4ee1_8347_90493177944a o )  ) ) ( type_2d3c97cf_325a_49ef_a888_eb319153573c_Class35 ( obj_f556cd14_fd8b_4ee1_8347_90493177944a o )  ) ) ( type_2d3c97cf_325a_49ef_a888_eb319153573c_Class2 ( obj_f556cd14_fd8b_4ee1_8347_90493177944a o )  ) )):named c0))
(assert (! (exists ((o Int)) ( type_2d3c97cf_325a_49ef_a888_eb319153573c_Class1 ( obj_f556cd14_fd8b_4ee1_8347_90493177944a o )  ) ):named c1))
(assert (! (exists ((o Int)) (and (and (and (and ( type_2d3c97cf_325a_49ef_a888_eb319153573c_Class10 ( obj_f556cd14_fd8b_4ee1_8347_90493177944a o )  )  ( type_2d3c97cf_325a_49ef_a888_eb319153573c_Class16 ( obj_f556cd14_fd8b_4ee1_8347_90493177944a o )  ) ) ( type_2d3c97cf_325a_49ef_a888_eb319153573c_Class15 ( obj_f556cd14_fd8b_4ee1_8347_90493177944a o )  ) ) ( type_2d3c97cf_325a_49ef_a888_eb319153573c_Class41 ( obj_f556cd14_fd8b_4ee1_8347_90493177944a o )  ) ) ( type_2d3c97cf_325a_49ef_a888_eb319153573c_Class2 ( obj_f556cd14_fd8b_4ee1_8347_90493177944a o )  ) )):named c2))
(assert (! (exists ((o Int)) ( type_2d3c97cf_325a_49ef_a888_eb319153573c_Class11 ( obj_f556cd14_fd8b_4ee1_8347_90493177944a o )  ) ):named c3))
(assert (! (exists ((o Int)) (and (and (and (and ( type_2d3c97cf_325a_49ef_a888_eb319153573c_Class12 ( obj_f556cd14_fd8b_4ee1_8347_90493177944a o )  )  ( type_2d3c97cf_325a_49ef_a888_eb319153573c_Class22 ( obj_f556cd14_fd8b_4ee1_8347_90493177944a o )  ) ) ( type_2d3c97cf_325a_49ef_a888_eb319153573c_Class35 ( obj_f556cd14_fd8b_4ee1_8347_90493177944a o )  ) ) ( type_2d3c97cf_325a_49ef_a888_eb319153573c_Class0 ( obj_f556cd14_fd8b_4ee1_8347_90493177944a o )  ) ) ( type_2d3c97cf_325a_49ef_a888_eb319153573c_Class2 ( obj_f556cd14_fd8b_4ee1_8347_90493177944a o )  ) )):named c4))
(assert (! (exists ((o Int)) (and (and (and ( type_2d3c97cf_325a_49ef_a888_eb319153573c_Class13 ( obj_f556cd14_fd8b_4ee1_8347_90493177944a o )  )  ( type_2d3c97cf_325a_49ef_a888_eb319153573c_Class16 ( obj_f556cd14_fd8b_4ee1_8347_90493177944a o )  ) ) ( type_2d3c97cf_325a_49ef_a888_eb319153573c_Class15 ( obj_f556cd14_fd8b_4ee1_8347_90493177944a o )  ) ) ( type_2d3c97cf_325a_49ef_a888_eb319153573c_Class2 ( obj_f556cd14_fd8b_4ee1_8347_90493177944a o )  ) )):named c5))
(assert (! (exists ((o Int)) (and (and (and (and (and (and (and ( type_2d3c97cf_325a_49ef_a888_eb319153573c_Class14 ( obj_f556cd14_fd8b_4ee1_8347_90493177944a o )  )  ( type_2d3c97cf_325a_49ef_a888_eb319153573c_Class33 ( obj_f556cd14_fd8b_4ee1_8347_90493177944a o )  ) ) ( type_2d3c97cf_325a_49ef_a888_eb319153573c_Class13 ( obj_f556cd14_fd8b_4ee1_8347_90493177944a o )  ) ) ( type_2d3c97cf_325a_49ef_a888_eb319153573c_Class16 ( obj_f556cd14_fd8b_4ee1_8347_90493177944a o )  ) ) ( type_2d3c97cf_325a_49ef_a888_eb319153573c_Class15 ( obj_f556cd14_fd8b_4ee1_8347_90493177944a o )  ) ) ( type_2d3c97cf_325a_49ef_a888_eb319153573c_Class4 ( obj_f556cd14_fd8b_4ee1_8347_90493177944a o )  ) ) ( type_2d3c97cf_325a_49ef_a888_eb319153573c_Class41 ( obj_f556cd14_fd8b_4ee1_8347_90493177944a o )  ) ) ( type_2d3c97cf_325a_49ef_a888_eb319153573c_Class2 ( obj_f556cd14_fd8b_4ee1_8347_90493177944a o )  ) )):named c6))
(assert (! (exists ((o Int)) (and ( type_2d3c97cf_325a_49ef_a888_eb319153573c_Class15 ( obj_f556cd14_fd8b_4ee1_8347_90493177944a o )  )  ( type_2d3c97cf_325a_49ef_a888_eb319153573c_Class2 ( obj_f556cd14_fd8b_4ee1_8347_90493177944a o )  ) )):named c7))
(assert (! (exists ((o Int)) (and (and ( type_2d3c97cf_325a_49ef_a888_eb319153573c_Class16 ( obj_f556cd14_fd8b_4ee1_8347_90493177944a o )  )  ( type_2d3c97cf_325a_49ef_a888_eb319153573c_Class15 ( obj_f556cd14_fd8b_4ee1_8347_90493177944a o )  ) ) ( type_2d3c97cf_325a_49ef_a888_eb319153573c_Class2 ( obj_f556cd14_fd8b_4ee1_8347_90493177944a o )  ) )):named c8))
(assert (! (exists ((o Int)) (and (and (and (and ( type_2d3c97cf_325a_49ef_a888_eb319153573c_Class17 ( obj_f556cd14_fd8b_4ee1_8347_90493177944a o )  )  ( type_2d3c97cf_325a_49ef_a888_eb319153573c_Class24 ( obj_f556cd14_fd8b_4ee1_8347_90493177944a o )  ) ) ( type_2d3c97cf_325a_49ef_a888_eb319153573c_Class26 ( obj_f556cd14_fd8b_4ee1_8347_90493177944a o )  ) ) ( type_2d3c97cf_325a_49ef_a888_eb319153573c_Class32 ( obj_f556cd14_fd8b_4ee1_8347_90493177944a o )  ) ) ( type_2d3c97cf_325a_49ef_a888_eb319153573c_Class2 ( obj_f556cd14_fd8b_4ee1_8347_90493177944a o )  ) )):named c9))
(assert (! (exists ((o Int)) ( type_2d3c97cf_325a_49ef_a888_eb319153573c_Class18 ( obj_f556cd14_fd8b_4ee1_8347_90493177944a o )  ) ):named c10))
(assert (! (exists ((o Int)) ( type_2d3c97cf_325a_49ef_a888_eb319153573c_Class19 ( obj_f556cd14_fd8b_4ee1_8347_90493177944a o )  ) ):named c11))
(assert (! (exists ((o Int)) ( type_2d3c97cf_325a_49ef_a888_eb319153573c_Class2 ( obj_f556cd14_fd8b_4ee1_8347_90493177944a o )  ) ):named c12))
(assert (! (exists ((o Int)) (and (and ( type_2d3c97cf_325a_49ef_a888_eb319153573c_Class20 ( obj_f556cd14_fd8b_4ee1_8347_90493177944a o )  )  ( type_2d3c97cf_325a_49ef_a888_eb319153573c_Class21 ( obj_f556cd14_fd8b_4ee1_8347_90493177944a o )  ) ) ( type_2d3c97cf_325a_49ef_a888_eb319153573c_Class2 ( obj_f556cd14_fd8b_4ee1_8347_90493177944a o )  ) )):named c13))
(assert (! (exists ((o Int)) (and ( type_2d3c97cf_325a_49ef_a888_eb319153573c_Class21 ( obj_f556cd14_fd8b_4ee1_8347_90493177944a o )  )  ( type_2d3c97cf_325a_49ef_a888_eb319153573c_Class2 ( obj_f556cd14_fd8b_4ee1_8347_90493177944a o )  ) )):named c14))
(assert (! (exists ((o Int)) (and (and ( type_2d3c97cf_325a_49ef_a888_eb319153573c_Class22 ( obj_f556cd14_fd8b_4ee1_8347_90493177944a o )  )  ( type_2d3c97cf_325a_49ef_a888_eb319153573c_Class35 ( obj_f556cd14_fd8b_4ee1_8347_90493177944a o )  ) ) ( type_2d3c97cf_325a_49ef_a888_eb319153573c_Class2 ( obj_f556cd14_fd8b_4ee1_8347_90493177944a o )  ) )):named c15))
(assert (! (exists ((o Int)) (and (and (and (and (and (and ( type_2d3c97cf_325a_49ef_a888_eb319153573c_Class23 ( obj_f556cd14_fd8b_4ee1_8347_90493177944a o )  )  ( type_2d3c97cf_325a_49ef_a888_eb319153573c_Class12 ( obj_f556cd14_fd8b_4ee1_8347_90493177944a o )  ) ) ( type_2d3c97cf_325a_49ef_a888_eb319153573c_Class22 ( obj_f556cd14_fd8b_4ee1_8347_90493177944a o )  ) ) ( type_2d3c97cf_325a_49ef_a888_eb319153573c_Class25 ( obj_f556cd14_fd8b_4ee1_8347_90493177944a o )  ) ) ( type_2d3c97cf_325a_49ef_a888_eb319153573c_Class35 ( obj_f556cd14_fd8b_4ee1_8347_90493177944a o )  ) ) ( type_2d3c97cf_325a_49ef_a888_eb319153573c_Class0 ( obj_f556cd14_fd8b_4ee1_8347_90493177944a o )  ) ) ( type_2d3c97cf_325a_49ef_a888_eb319153573c_Class2 ( obj_f556cd14_fd8b_4ee1_8347_90493177944a o )  ) )):named c16))
(assert (! (exists ((o Int)) (and (and (and ( type_2d3c97cf_325a_49ef_a888_eb319153573c_Class24 ( obj_f556cd14_fd8b_4ee1_8347_90493177944a o )  )  ( type_2d3c97cf_325a_49ef_a888_eb319153573c_Class26 ( obj_f556cd14_fd8b_4ee1_8347_90493177944a o )  ) ) ( type_2d3c97cf_325a_49ef_a888_eb319153573c_Class32 ( obj_f556cd14_fd8b_4ee1_8347_90493177944a o )  ) ) ( type_2d3c97cf_325a_49ef_a888_eb319153573c_Class2 ( obj_f556cd14_fd8b_4ee1_8347_90493177944a o )  ) )):named c17))
(assert (! (exists ((o Int)) (and (and (and (and (and ( type_2d3c97cf_325a_49ef_a888_eb319153573c_Class25 ( obj_f556cd14_fd8b_4ee1_8347_90493177944a o )  )  ( type_2d3c97cf_325a_49ef_a888_eb319153573c_Class12 ( obj_f556cd14_fd8b_4ee1_8347_90493177944a o )  ) ) ( type_2d3c97cf_325a_49ef_a888_eb319153573c_Class22 ( obj_f556cd14_fd8b_4ee1_8347_90493177944a o )  ) ) ( type_2d3c97cf_325a_49ef_a888_eb319153573c_Class35 ( obj_f556cd14_fd8b_4ee1_8347_90493177944a o )  ) ) ( type_2d3c97cf_325a_49ef_a888_eb319153573c_Class0 ( obj_f556cd14_fd8b_4ee1_8347_90493177944a o )  ) ) ( type_2d3c97cf_325a_49ef_a888_eb319153573c_Class2 ( obj_f556cd14_fd8b_4ee1_8347_90493177944a o )  ) )):named c18))
(assert (! (exists ((o Int)) (and (and ( type_2d3c97cf_325a_49ef_a888_eb319153573c_Class26 ( obj_f556cd14_fd8b_4ee1_8347_90493177944a o )  )  ( type_2d3c97cf_325a_49ef_a888_eb319153573c_Class32 ( obj_f556cd14_fd8b_4ee1_8347_90493177944a o )  ) ) ( type_2d3c97cf_325a_49ef_a888_eb319153573c_Class2 ( obj_f556cd14_fd8b_4ee1_8347_90493177944a o )  ) )):named c19))
(assert (! (exists ((o Int)) (and ( type_2d3c97cf_325a_49ef_a888_eb319153573c_Class27 ( obj_f556cd14_fd8b_4ee1_8347_90493177944a o )  )  ( type_2d3c97cf_325a_49ef_a888_eb319153573c_Class2 ( obj_f556cd14_fd8b_4ee1_8347_90493177944a o )  ) )):named c20))
(assert (! (exists ((o Int)) ( type_2d3c97cf_325a_49ef_a888_eb319153573c_Class28 ( obj_f556cd14_fd8b_4ee1_8347_90493177944a o )  ) ):named c21))
(assert (! (exists ((o Int)) ( type_2d3c97cf_325a_49ef_a888_eb319153573c_Class29 ( obj_f556cd14_fd8b_4ee1_8347_90493177944a o )  ) ):named c22))
(assert (! (exists ((o Int)) ( type_2d3c97cf_325a_49ef_a888_eb319153573c_Class3 ( obj_f556cd14_fd8b_4ee1_8347_90493177944a o )  ) ):named c23))
(assert (! (exists ((o Int)) (and ( type_2d3c97cf_325a_49ef_a888_eb319153573c_Class30 ( obj_f556cd14_fd8b_4ee1_8347_90493177944a o )  )  ( type_2d3c97cf_325a_49ef_a888_eb319153573c_Class2 ( obj_f556cd14_fd8b_4ee1_8347_90493177944a o )  ) )):named c24))
(assert (! (exists ((o Int)) (and (and (and (and ( type_2d3c97cf_325a_49ef_a888_eb319153573c_Class31 ( obj_f556cd14_fd8b_4ee1_8347_90493177944a o )  )  ( type_2d3c97cf_325a_49ef_a888_eb319153573c_Class16 ( obj_f556cd14_fd8b_4ee1_8347_90493177944a o )  ) ) ( type_2d3c97cf_325a_49ef_a888_eb319153573c_Class15 ( obj_f556cd14_fd8b_4ee1_8347_90493177944a o )  ) ) ( type_2d3c97cf_325a_49ef_a888_eb319153573c_Class41 ( obj_f556cd14_fd8b_4ee1_8347_90493177944a o )  ) ) ( type_2d3c97cf_325a_49ef_a888_eb319153573c_Class2 ( obj_f556cd14_fd8b_4ee1_8347_90493177944a o )  ) )):named c25))
(assert (! (exists ((o Int)) (and ( type_2d3c97cf_325a_49ef_a888_eb319153573c_Class32 ( obj_f556cd14_fd8b_4ee1_8347_90493177944a o )  )  ( type_2d3c97cf_325a_49ef_a888_eb319153573c_Class2 ( obj_f556cd14_fd8b_4ee1_8347_90493177944a o )  ) )):named c26))
(assert (! (exists ((o Int)) (and (and (and (and (and ( type_2d3c97cf_325a_49ef_a888_eb319153573c_Class33 ( obj_f556cd14_fd8b_4ee1_8347_90493177944a o )  )  ( type_2d3c97cf_325a_49ef_a888_eb319153573c_Class13 ( obj_f556cd14_fd8b_4ee1_8347_90493177944a o )  ) ) ( type_2d3c97cf_325a_49ef_a888_eb319153573c_Class16 ( obj_f556cd14_fd8b_4ee1_8347_90493177944a o )  ) ) ( type_2d3c97cf_325a_49ef_a888_eb319153573c_Class15 ( obj_f556cd14_fd8b_4ee1_8347_90493177944a o )  ) ) ( type_2d3c97cf_325a_49ef_a888_eb319153573c_Class41 ( obj_f556cd14_fd8b_4ee1_8347_90493177944a o )  ) ) ( type_2d3c97cf_325a_49ef_a888_eb319153573c_Class2 ( obj_f556cd14_fd8b_4ee1_8347_90493177944a o )  ) )):named c27))
(assert (! (exists ((o Int)) ( type_2d3c97cf_325a_49ef_a888_eb319153573c_Class34 ( obj_f556cd14_fd8b_4ee1_8347_90493177944a o )  ) ):named c28))
(assert (! (exists ((o Int)) (and ( type_2d3c97cf_325a_49ef_a888_eb319153573c_Class35 ( obj_f556cd14_fd8b_4ee1_8347_90493177944a o )  )  ( type_2d3c97cf_325a_49ef_a888_eb319153573c_Class2 ( obj_f556cd14_fd8b_4ee1_8347_90493177944a o )  ) )):named c29))
(assert (! (exists ((o Int)) ( type_2d3c97cf_325a_49ef_a888_eb319153573c_Class36 ( obj_f556cd14_fd8b_4ee1_8347_90493177944a o )  ) ):named c30))
(assert (! (exists ((o Int)) ( type_2d3c97cf_325a_49ef_a888_eb319153573c_Class37 ( obj_f556cd14_fd8b_4ee1_8347_90493177944a o )  ) ):named c31))
(assert (! (exists ((o Int)) (and ( type_2d3c97cf_325a_49ef_a888_eb319153573c_Class38 ( obj_f556cd14_fd8b_4ee1_8347_90493177944a o )  )  ( type_2d3c97cf_325a_49ef_a888_eb319153573c_Class2 ( obj_f556cd14_fd8b_4ee1_8347_90493177944a o )  ) )):named c32))
(assert (! (exists ((o Int)) ( type_2d3c97cf_325a_49ef_a888_eb319153573c_Class39 ( obj_f556cd14_fd8b_4ee1_8347_90493177944a o )  ) ):named c33))
(assert (! (exists ((o Int)) (and (and (and (and (and (and ( type_2d3c97cf_325a_49ef_a888_eb319153573c_Class4 ( obj_f556cd14_fd8b_4ee1_8347_90493177944a o )  )  ( type_2d3c97cf_325a_49ef_a888_eb319153573c_Class33 ( obj_f556cd14_fd8b_4ee1_8347_90493177944a o )  ) ) ( type_2d3c97cf_325a_49ef_a888_eb319153573c_Class13 ( obj_f556cd14_fd8b_4ee1_8347_90493177944a o )  ) ) ( type_2d3c97cf_325a_49ef_a888_eb319153573c_Class16 ( obj_f556cd14_fd8b_4ee1_8347_90493177944a o )  ) ) ( type_2d3c97cf_325a_49ef_a888_eb319153573c_Class15 ( obj_f556cd14_fd8b_4ee1_8347_90493177944a o )  ) ) ( type_2d3c97cf_325a_49ef_a888_eb319153573c_Class41 ( obj_f556cd14_fd8b_4ee1_8347_90493177944a o )  ) ) ( type_2d3c97cf_325a_49ef_a888_eb319153573c_Class2 ( obj_f556cd14_fd8b_4ee1_8347_90493177944a o )  ) )):named c34))
(assert (! (exists ((o Int)) (and (and (and ( type_2d3c97cf_325a_49ef_a888_eb319153573c_Class40 ( obj_f556cd14_fd8b_4ee1_8347_90493177944a o )  )  ( type_2d3c97cf_325a_49ef_a888_eb319153573c_Class21 ( obj_f556cd14_fd8b_4ee1_8347_90493177944a o )  ) ) ( type_2d3c97cf_325a_49ef_a888_eb319153573c_Class2 ( obj_f556cd14_fd8b_4ee1_8347_90493177944a o )  ) ) ( type_2d3c97cf_325a_49ef_a888_eb319153573c_Class20 ( obj_f556cd14_fd8b_4ee1_8347_90493177944a o )  ) )):named c35))
(assert (! (exists ((o Int)) (and (and (and ( type_2d3c97cf_325a_49ef_a888_eb319153573c_Class41 ( obj_f556cd14_fd8b_4ee1_8347_90493177944a o )  )  ( type_2d3c97cf_325a_49ef_a888_eb319153573c_Class16 ( obj_f556cd14_fd8b_4ee1_8347_90493177944a o )  ) ) ( type_2d3c97cf_325a_49ef_a888_eb319153573c_Class15 ( obj_f556cd14_fd8b_4ee1_8347_90493177944a o )  ) ) ( type_2d3c97cf_325a_49ef_a888_eb319153573c_Class2 ( obj_f556cd14_fd8b_4ee1_8347_90493177944a o )  ) )):named c36))
(assert (! (exists ((o Int)) (and (and (and ( type_2d3c97cf_325a_49ef_a888_eb319153573c_Class42 ( obj_f556cd14_fd8b_4ee1_8347_90493177944a o )  )  ( type_2d3c97cf_325a_49ef_a888_eb319153573c_Class22 ( obj_f556cd14_fd8b_4ee1_8347_90493177944a o )  ) ) ( type_2d3c97cf_325a_49ef_a888_eb319153573c_Class35 ( obj_f556cd14_fd8b_4ee1_8347_90493177944a o )  ) ) ( type_2d3c97cf_325a_49ef_a888_eb319153573c_Class2 ( obj_f556cd14_fd8b_4ee1_8347_90493177944a o )  ) )):named c37))
(assert (! (exists ((o Int)) ( type_2d3c97cf_325a_49ef_a888_eb319153573c_Class43 ( obj_f556cd14_fd8b_4ee1_8347_90493177944a o )  ) ):named c38))
(assert (! (exists ((o Int)) (and (and (and (and (and (and ( type_2d3c97cf_325a_49ef_a888_eb319153573c_Class44 ( obj_f556cd14_fd8b_4ee1_8347_90493177944a o )  )  ( type_2d3c97cf_325a_49ef_a888_eb319153573c_Class33 ( obj_f556cd14_fd8b_4ee1_8347_90493177944a o )  ) ) ( type_2d3c97cf_325a_49ef_a888_eb319153573c_Class13 ( obj_f556cd14_fd8b_4ee1_8347_90493177944a o )  ) ) ( type_2d3c97cf_325a_49ef_a888_eb319153573c_Class16 ( obj_f556cd14_fd8b_4ee1_8347_90493177944a o )  ) ) ( type_2d3c97cf_325a_49ef_a888_eb319153573c_Class15 ( obj_f556cd14_fd8b_4ee1_8347_90493177944a o )  ) ) ( type_2d3c97cf_325a_49ef_a888_eb319153573c_Class41 ( obj_f556cd14_fd8b_4ee1_8347_90493177944a o )  ) ) ( type_2d3c97cf_325a_49ef_a888_eb319153573c_Class2 ( obj_f556cd14_fd8b_4ee1_8347_90493177944a o )  ) )):named c39))
(assert (! (exists ((o Int)) ( type_2d3c97cf_325a_49ef_a888_eb319153573c_Class45 ( obj_f556cd14_fd8b_4ee1_8347_90493177944a o )  ) ):named c40))
(assert (! (exists ((o Int)) ( type_2d3c97cf_325a_49ef_a888_eb319153573c_Class5 ( obj_f556cd14_fd8b_4ee1_8347_90493177944a o )  ) ):named c41))
(assert (! (exists ((o Int)) (and (and (and (and ( type_2d3c97cf_325a_49ef_a888_eb319153573c_Class6 ( obj_f556cd14_fd8b_4ee1_8347_90493177944a o )  )  ( type_2d3c97cf_325a_49ef_a888_eb319153573c_Class22 ( obj_f556cd14_fd8b_4ee1_8347_90493177944a o )  ) ) ( type_2d3c97cf_325a_49ef_a888_eb319153573c_Class35 ( obj_f556cd14_fd8b_4ee1_8347_90493177944a o )  ) ) ( type_2d3c97cf_325a_49ef_a888_eb319153573c_Class2 ( obj_f556cd14_fd8b_4ee1_8347_90493177944a o )  ) ) ( type_2d3c97cf_325a_49ef_a888_eb319153573c_Class42 ( obj_f556cd14_fd8b_4ee1_8347_90493177944a o )  ) )):named c42))
(assert (! (exists ((o Int)) ( type_2d3c97cf_325a_49ef_a888_eb319153573c_Class7 ( obj_f556cd14_fd8b_4ee1_8347_90493177944a o )  ) ):named c43))
(assert (! (exists ((o Int)) (and (and (and (and (and ( type_2d3c97cf_325a_49ef_a888_eb319153573c_Class8 ( obj_f556cd14_fd8b_4ee1_8347_90493177944a o )  )  ( type_2d3c97cf_325a_49ef_a888_eb319153573c_Class16 ( obj_f556cd14_fd8b_4ee1_8347_90493177944a o )  ) ) ( type_2d3c97cf_325a_49ef_a888_eb319153573c_Class15 ( obj_f556cd14_fd8b_4ee1_8347_90493177944a o )  ) ) ( type_2d3c97cf_325a_49ef_a888_eb319153573c_Class41 ( obj_f556cd14_fd8b_4ee1_8347_90493177944a o )  ) ) ( type_2d3c97cf_325a_49ef_a888_eb319153573c_Class10 ( obj_f556cd14_fd8b_4ee1_8347_90493177944a o )  ) ) ( type_2d3c97cf_325a_49ef_a888_eb319153573c_Class2 ( obj_f556cd14_fd8b_4ee1_8347_90493177944a o )  ) )):named c44))
(assert (! (exists ((o Int)) (and (and (and (and (and (and (and ( type_2d3c97cf_325a_49ef_a888_eb319153573c_Class9 ( obj_f556cd14_fd8b_4ee1_8347_90493177944a o )  )  ( type_2d3c97cf_325a_49ef_a888_eb319153573c_Class22 ( obj_f556cd14_fd8b_4ee1_8347_90493177944a o )  ) ) ( type_2d3c97cf_325a_49ef_a888_eb319153573c_Class35 ( obj_f556cd14_fd8b_4ee1_8347_90493177944a o )  ) ) ( type_2d3c97cf_325a_49ef_a888_eb319153573c_Class16 ( obj_f556cd14_fd8b_4ee1_8347_90493177944a o )  ) ) ( type_2d3c97cf_325a_49ef_a888_eb319153573c_Class15 ( obj_f556cd14_fd8b_4ee1_8347_90493177944a o )  ) ) ( type_2d3c97cf_325a_49ef_a888_eb319153573c_Class0 ( obj_f556cd14_fd8b_4ee1_8347_90493177944a o )  ) ) ( type_2d3c97cf_325a_49ef_a888_eb319153573c_Class41 ( obj_f556cd14_fd8b_4ee1_8347_90493177944a o )  ) ) ( type_2d3c97cf_325a_49ef_a888_eb319153573c_Class2 ( obj_f556cd14_fd8b_4ee1_8347_90493177944a o )  ) )):named c45))

 ;end of formula 